(set-info :smt-lib-version 2.6)
(set-logic QF_BV)
(set-info :source |
 Patrice Godefroid, SAGE (systematic dynamic test generation)
 For more information: http://research.microsoft.com/en-us/um/people/pg/public_psfiles/ndss2008.pdf
|)
(set-info :category "industrial")
(set-info :status unsat)
(declare-fun T4_132 () (_ BitVec 32))
(declare-fun T1_132 () (_ BitVec 8))
(declare-fun T1_133 () (_ BitVec 8))
(declare-fun T1_134 () (_ BitVec 8))
(declare-fun T1_135 () (_ BitVec 8))
(assert (let ((?v_0 (bvsub T4_132 (_ bv1 32)))) (let ((?v_22 (bvudiv (bvadd ?v_0 (_ bv580000000 32)) T4_132)) (?v_1 (bvudiv (bvadd ?v_0 (_ bv20000000 32)) T4_132)) (?v_11 (bvudiv (bvadd ?v_0 (_ bv40000000 32)) T4_132))) (let ((?v_12 (bvsub ?v_11 ?v_1))) (let ((?v_23 (bvadd ?v_12 ?v_1)) (?v_6 (bvudiv ?v_0 T4_132))) (let ((?v_20 (bvsub ?v_1 ?v_6))) (let ((?v_21 (bvadd ?v_20 ?v_6)) (?v_3 (bvudiv (_ bv0 32) T4_132))) (let ((?v_19 (bvule (_ bv0 32) ?v_3)) (?v_18 (bvule ?v_3 (_ bv0 32))) (?v_17 (bvudiv (_ bv600000000 32) T4_132)) (?v_16 (bvudiv (_ bv20000000 32) T4_132)) (?v_9 (bvsub ?v_3 ((_ zero_extend 24) (ite (bvult ?v_1 (_ bv0 32)) (_ bv1 8) (_ bv0 8)))))) (let ((?v_14 (bvsub (bvsub (bvsub ?v_3 ((_ zero_extend 24) (ite (bvult ?v_11 (_ bv0 32)) (_ bv1 8) (_ bv0 8)))) ?v_9) ((_ zero_extend 24) (ite (bvult ?v_12 (_ bv0 32)) (_ bv1 8) (_ bv0 8)))))) (let ((?v_15 (bvadd ?v_14 ?v_9)) (?v_10 (bvsub ?v_1 (_ bv4294916639 32)))) (let ((?v_13 (bvadd (bvsub (bvsub ?v_9 (_ bv4294967295 32)) ((_ zero_extend 24) (ite (bvult ?v_10 (_ bv0 32)) (_ bv1 8) (_ bv0 8)))) ?v_14)) (?v_8 (bvadd ?v_3 (_ bv4294967295 32))) (?v_5 (bvsub ?v_3 ((_ zero_extend 24) (ite (bvult ?v_6 (_ bv0 32)) (_ bv1 8) (_ bv0 8)))))) (let ((?v_7 (bvadd (bvsub (bvsub ?v_9 ?v_5) ((_ zero_extend 24) (ite (bvult ?v_20 (_ bv0 32)) (_ bv1 8) (_ bv0 8)))) ?v_5)) (?v_4 (bvadd (bvadd ?v_3 ?v_3) (_ bv4294967295 32))) (?v_2 (bvsub (_ bv0 32) ?v_3))) (and true (= T4_132 (bvor (bvshl (bvor (bvshl (bvor (bvshl ((_ zero_extend 24) T1_135) (_ bv8 32)) ((_ zero_extend 24) T1_134)) (_ bv8 32)) ((_ zero_extend 24) T1_133)) (_ bv8 32)) ((_ zero_extend 24) T1_132))) (bvule (bvadd ?v_10 ?v_12) (_ bv0 32)) (= (bvsub ?v_2 ((_ zero_extend 24) (ite (bvult ?v_2 (_ bv0 32)) (_ bv1 8) (_ bv0 8)))) (_ bv0 32)) (bvule (_ bv0 32) (bvadd (bvadd ?v_17 ?v_3) (_ bv4294967295 32))) (bvule (_ bv0 32) ?v_4) (bvule ?v_4 (_ bv0 32)) (bvule (bvadd ?v_16 (_ bv4294967295 32)) (_ bv99999998 32)) (bvsle (_ bv0 32) ?v_5) (bvsle ?v_5 (_ bv0 32)) (bvslt ?v_5 (_ bv423 32)) (bvsle ?v_5 (_ bv423 32)) (bvsle ?v_7 ?v_5) (bvsle ?v_5 ?v_7) (bvule (_ bv0 32) ?v_8) (bvule ?v_8 (_ bv0 32)) (bvsle (_ bv0 32) ?v_13) (bvsle ?v_13 (_ bv0 32)) (bvsle (_ bv0 32) ?v_9) (bvsle ?v_9 (_ bv0 32)) (bvslt (_ bv4294967295 32) ?v_9) (bvsle ?v_15 ?v_9) (bvsle ?v_9 ?v_15) (bvule ?v_16 (_ bv200030 32)) (bvule (_ bv199970 32) ?v_16) (bvult ?v_16 (_ bv333303 32)) (bvult (_ bv166863 32) ?v_16) (not (= ?v_17 (_ bv0 32))) (bvult (_ bv0 32) ?v_17) ?v_18 ?v_19 ?v_18 ?v_19 (bvsle ?v_3 (_ bv0 32)) (bvsle (_ bv0 32) ?v_3) (bvult ?v_3 (_ bv2147483647 32)) (bvule (_ bv0 32) ?v_0) (not (= ?v_0 (_ bv0 32))) (bvule ?v_6 (_ bv0 32)) (not (= ?v_6 (bvudiv (bvadd ?v_21 ?v_6) (_ bv2 32)))) (bvule ?v_6 ?v_21) (bvult (bvudiv (bvadd ?v_0 (_ bv400000000 32)) T4_132) ?v_22) (bvult (bvudiv (bvadd ?v_0 (_ bv380000000 32)) T4_132) ?v_22) (bvult (bvudiv (bvadd ?v_0 (_ bv360000000 32)) T4_132) ?v_22) (bvult (bvudiv (bvadd ?v_0 (_ bv340000000 32)) T4_132) ?v_22) (bvult (bvudiv (bvadd ?v_0 (_ bv320000000 32)) T4_132) ?v_22) (bvult (bvudiv (bvadd ?v_0 (_ bv300000000 32)) T4_132) ?v_22) (bvult (bvudiv (bvadd ?v_0 (_ bv280000000 32)) T4_132) ?v_22) (bvult (bvudiv (bvadd ?v_0 (_ bv260000000 32)) T4_132) ?v_22) (bvult (bvudiv (bvadd ?v_0 (_ bv240000000 32)) T4_132) ?v_22) (bvult (bvudiv (bvadd ?v_0 (_ bv220000000 32)) T4_132) ?v_22) (bvult (bvudiv (bvadd ?v_0 (_ bv200000000 32)) T4_132) ?v_22) (bvult (bvudiv (bvadd ?v_0 (_ bv180000000 32)) T4_132) ?v_22) (bvult (bvudiv (bvadd ?v_0 (_ bv160000000 32)) T4_132) ?v_22) (bvult (bvudiv (bvadd ?v_0 (_ bv140000000 32)) T4_132) ?v_22) (bvult (bvudiv (bvadd ?v_0 (_ bv120000000 32)) T4_132) ?v_22) (bvult (bvudiv (bvadd ?v_0 (_ bv100000000 32)) T4_132) ?v_22) (bvult (bvudiv (bvadd ?v_0 (_ bv80000000 32)) T4_132) ?v_22) (bvult (bvudiv (bvadd ?v_0 (_ bv60000000 32)) T4_132) ?v_22) (bvule (_ bv0 32) ?v_22) (bvult (_ bv0 32) ?v_22) (bvult (_ bv0 32) T4_132) (bvule (_ bv0 32) T4_132) (not (= T4_132 (_ bv0 32))) (bvult ?v_11 ?v_22) (bvult (_ bv0 32) ?v_1) (not (= ?v_1 (bvudiv (bvadd ?v_23 ?v_1) (_ bv2 32)))) (bvule ?v_1 ?v_23) (bvult ?v_1 ?v_22))))))))))))))
(check-sat)
(exit)
